c User generated cnf file
p cnf 12 62
4 -2 11 0 
4 7 -1 0 
-2 11 8 0 
-7 5 7 0 
5 8 -10 0 
5 7 -2 0 
12 9 -1 0 
-8 6 8 0 
3 5 -11 0 
-2 7 6 0 
11 8 -9 0 
8 8 -3 0 
5 9 -11 0 
6 7 -10 0 
10 1 -11 0 
12 -3 9 0 
4 2 -8 0 
-11 4 8 0 
10 -4 7 0 
1 -7 2 0 
11 2 -10 0 
-11 1 5 0 
10 8 -8 0 
1 -2 12 0 
-11 1 3 0 
4 -11 12 0 
12 9 -12 0 
-9 1 1 0 
6 11 -3 0 
9 -5 11 0 
3 -12 9 0 
-5 1 7 0 
-10 2 6 0 
11 -1 2 0 
5 7 -2 0 
11 8 -11 0 
-10 5 9 0 
4 3 -6 0 
-7 7 6 0 
-1 6 4 0 
7 -11 10 0 
-10 10 3 0 
3 -10 10 0 
-5 6 11 0 
-11 5 2 0 
-2 9 11 0 
-1 5 9 0 
-5 1 5 0 
2 -9 9 0 
-3 9 7 0 
-4 11 10 0 
6 -12 12 0 
-3 2 1 0 
-10 6 9 0 
-12 2 5 0 
7 -5 8 0 
-8 2 6 0 
-2 3 4 0 
5 11 -12 0 
7 -5 9 0 
10 4 -10 0 
12 1 -12 0 
